certificates/rado_a7_c27_N12.cnf
c Rad2 upper bound instance: x1 + 7*x2 - x3 = 27, interval [1,12]
p cnf 12 40
1 2 4 0
-1 -2 -4 0
1 5 9 0
-1 -5 -9 0
2 3 4 0
-2 -3 -4 0
2 5 10 0
-2 -5 -10 0
3 4 0
-3 -4 0
3 5 11 0
-3 -5 -11 0
4 5 0
-4 -5 0
4 5 12 0
-4 -5 -12 0
4 5 6 0
-4 -5 -6 0
4 6 7 0
-4 -6 -7 0
1 3 7 0
-1 -3 -7 0
4 7 8 0
-4 -7 -8 0
2 3 8 0
-2 -3 -8 0
4 8 9 0
-4 -8 -9 0
3 9 0
-3 -9 0
4 9 10 0
-4 -9 -10 0
3 4 10 0
-3 -4 -10 0
4 10 11 0
-4 -10 -11 0
4 11 12 0
-4 -11 -12 0
3 6 12 0
-3 -6 -12 0
