certificates/rado_a7_c27_N12.drat
-11 -12 0
d -11 -4 -12 0
-5 -12 0
5 11 0
d 5 3 11 0
-12 0
11 0
-5 0
4 0
-3 0
-10 0
9 0
6 0
2 0
-8 0
-7 0
-1 0
0
